n_res = 4;
rc = [ 14, 16, 18, 15 ];
n_tasks = 30;
d = [ 5, 8, 1, 9, 5, 9, 6, 8, 8, 7, 5, 6, 9, 3, 6, 3, 3, 9, 7, 6, 7, 5, 9, 5, 9, 8, 9, 4, 6, 8 ];
rr = [| 0, 0, 0, 0, 0, 0, 0, 0, 0, 0, 7, 0, 0, 0, 0, 0, 0, 0, 0, 8, 10, 0, 0, 0, 0, 0, 0, 0, 0, 0
      | 0, 0, 0, 10, 3, 0, 0, 0, 0, 0, 0, 0, 9, 0, 0, 0, 0, 0, 0, 0, 0, 8, 6, 0, 0, 0, 0, 0, 10, 0
      | 0, 9, 0, 0, 0, 0, 5, 9, 0, 10, 0, 0, 0, 9, 0, 0, 0, 0, 0, 0, 0, 0, 0, 6, 2, 0, 7, 0, 0, 3
      | 2, 0, 3, 0, 0, 8, 0, 0, 7, 0, 0, 8, 0, 0, 8, 1, 5, 7, 7, 0, 0, 0, 0, 0, 0, 5, 0, 6, 0, 0 |];
suc = [ { 2 }, 
        { 1 }, 
        { 4 }, 
        { 3 }, 
        { 6 }, 
        { 5 }, 
        { 8 }, 
        { 7 }, 
        { 10 }, 
        { 9 }, 
        { 12 }, 
        { 11 }, 
        { 14 }, 
        { 13 }, 
        { 16 }, 
        { 15 }, 
        { 18 }, 
        { 17 }, 
        { 20 }, 
        { 19 }, 
        { 22 }, 
        { 21 }, 
        { 24 }, 
        { 23 }, 
        { 26 }, 
        { 25 }, 
        { 28 }, 
        { 27 }, 
        { 30 }, 
        { 29 }]; 
